VER
4

OBJSENSE
MIN

VAR
37 1
F 37

CON
470 3
SVECPSD 36
SVECORE 408
L= 26

OBJACOORD
8
0 1.0
2 1.0
5 -1.0
9 -1.0
14 -1.0
20 -1.0
27 1.0
35 1.0

ACOORD
373
322 0 1.0
308 0 1.0
177 0 1.0
172 0 1.0
59 0 0.848528137423857
41 0 4.0
46 0 0.848528137423857
39 0 -1.697056274847714
0 0 1.0
45 1 0.8485281374238569
44 1 -1.2
41 1 0.8485281374238569
38 1 0.8485281374238569
37 1 -1.2
36 1 0.8485281374238569
1 1 1.0
328 2 1.0
310 2 1.0
181 2 1.0
174 2 1.0
67 2 0.848528137423857
52 2 0.848528137423857
43 2 -1.697056274847714
2 2 1.0
333 3 1.0
311 3 1.0
195 3 1.0
182 3 1.0
63 3 0.8485281374238569
50 3 0.8485281374238569
59 3 2.0
48 3 -1.2
41 3 0.8485281374238569
57 3 -1.2
46 3 -2.0
36 3 0.8485281374238569
3 3 1.0
67 4 0.6
60 4 -1.2
59 4 0.6
52 4 0.6
47 4 -1.2
46 4 0.6
4 4 1.0
335 5 1.0
313 5 1.0
199 5 1.0
186 5 1.0
61 5 -1.697056274847714
50 5 -4.0
59 5 0.848528137423857
46 5 0.848528137423857
5 5 1.0
67 6 0.6
66 6 -1.2
59 6 0.6
52 6 0.6
51 6 -1.2
46 6 0.6
6 6 1.0
341 7 1.0
315 7 1.0
203 7 1.0
188 7 1.0
71 7 0.8485281374238569
56 7 0.8485281374238569
54 7 -1.2
45 7 0.8485281374238569
65 7 -1.2
38 7 0.8485281374238569
7 7 1.0
71 8 0.8485281374238569
70 8 -1.2
63 8 0.8485281374238569
56 8 0.8485281374238569
55 8 -1.2
50 8 0.8485281374238569
8 8 1.0
343 9 1.0
317 9 1.0
207 9 1.0
192 9 1.0
69 9 -1.697056274847714
67 9 0.848528137423857
52 9 0.848528137423857
9 9 1.0
101 10 0.8485281374238569
80 10 0.8485281374238569
93 10 -1.2
41 10 0.8485281374238569
72 10 -1.2
36 10 0.8485281374238569
10 10 1.0
11 11 1.0
151 12 0.6
122 12 0.6
97 12 -1.2
76 12 -1.2
59 12 0.6
46 12 0.6
12 12 1.0
13 13 1.0
398 14 1.0
352 14 1.0
237 14 1.0
216 14 1.0
151 14 0.848528137423857
122 14 0.848528137423857
99 14 -1.697056274847714
14 14 1.0
15 15 1.0
113 16 0.8485281374238569
90 16 0.8485281374238569
105 16 -1.2
45 16 0.8485281374238569
82 16 -1.2
38 16 0.8485281374238569
16 16 1.0
17 17 1.0
167 18 0.6
136 18 0.6
109 18 -1.2
86 18 -1.2
67 18 0.6
52 18 0.6
18 18 1.0
113 19 0.8485281374238569
112 19 -1.2
101 19 0.8485281374238569
90 19 0.8485281374238569
89 19 -1.2
80 19 0.8485281374238569
19 19 1.0
412 20 1.0
362 20 1.0
249 20 1.0
226 20 1.0
167 20 0.848528137423857
113 20 -4.0
136 20 0.848528137423857
111 20 -1.697056274847714
20 20 1.0
151 21 0.6
122 21 0.6
143 21 -1.2
59 21 0.6
114 21 -1.2
46 21 0.6
21 21 1.0
22 22 1.0
155 23 0.8485281374238569
126 23 0.8485281374238569
147 23 -1.2
63 23 0.8485281374238569
118 23 -1.2
50 23 0.8485281374238569
23 23 1.0
24 24 1.0
425 25 1.0
371 25 1.0
287 25 1.0
258 25 1.0
155 25 0.8485281374238569
126 25 0.8485281374238569
124 25 -1.2
101 25 0.8485281374238569
149 25 -1.2
80 25 0.8485281374238569
25 25 1.0
167 26 0.6
152 26 -1.2
151 26 0.6
136 26 0.6
123 26 -1.2
122 26 0.6
26 26 1.0
427 27 1.0
373 27 1.0
291 27 1.0
262 27 1.0
153 27 -1.697056274847714
151 27 0.848528137423857
122 27 0.848528137423857
27 27 1.0
28 28 1.0
167 29 0.6
136 29 0.6
159 29 -1.2
67 29 0.6
128 29 -1.2
52 29 0.6
29 29 1.0
30 30 1.0
171 31 0.8485281374238569
140 31 0.8485281374238569
163 31 -1.2
71 31 0.8485281374238569
132 31 -1.2
56 31 0.8485281374238569
31 31 1.0
167 32 0.6
166 32 -1.2
151 32 0.6
136 32 0.6
135 32 -1.2
122 32 0.6
32 32 1.0
441 33 1.0
383 33 1.0
303 33 1.0
272 33 1.0
171 33 0.8485281374238569
140 33 0.8485281374238569
167 33 -2.0
138 33 -1.2
113 33 0.8485281374238569
165 33 -1.2
136 33 2.0
90 33 0.8485281374238569
33 33 1.0
171 34 0.8485281374238569
170 34 -1.2
155 34 0.8485281374238569
140 34 0.8485281374238569
139 34 -1.2
126 34 0.8485281374238569
34 34 1.0
443 35 1.0
385 35 1.0
307 35 1.0
276 35 1.0
169 35 -1.697056274847714
140 35 4.0
167 35 0.848528137423857
136 35 0.848528137423857
35 35 1.0
171 36 1.0
155 36 1.0
140 36 1.0
126 36 1.0
113 36 1.0
101 36 1.0
90 36 1.0
80 36 1.0
71 36 1.0
63 36 1.0
56 36 1.0
50 36 1.0
45 36 1.0
41 36 1.0
38 36 1.0
36 36 1.0
444 36 1.0
445 35 1.0
445 27 1.0
445 20 1.0
445 14 1.0
445 9 1.0
445 5 1.0
445 2 1.0
445 0 1.0
446 14 1.0
446 2 -1.0
447 19 0.7071067811865475
447 7 -0.7071067811865475
447 3 -0.7071067811865475
447 1 0.7071067811865475
448 25 0.7071067811865475
448 16 -0.7071067811865475
448 10 -0.7071067811865475
448 3 0.7071067811865475
449 32 0.7071067811865475
449 29 -0.7071067811865475
449 21 -0.7071067811865475
449 6 0.7071067811865475
450 19 0.7071067811865475
450 7 -0.7071067811865475
450 3 -0.7071067811865475
450 1 0.7071067811865475
451 20 1.0
451 9 -1.0
451 5 -1.0
451 2 1.0
452 26 0.7071067811865475
452 18 -0.7071067811865475
452 12 -0.7071067811865475
452 4 0.7071067811865475
453 33 0.7071067811865475
453 31 -0.7071067811865475
453 23 -0.7071067811865475
453 7 0.7071067811865475
454 25 0.7071067811865475
454 16 -0.7071067811865475
454 10 -0.7071067811865475
454 3 0.7071067811865475
455 26 0.7071067811865475
455 18 -0.7071067811865475
455 12 -0.7071067811865475
455 4 0.7071067811865475
456 27 1.0
456 20 -1.0
456 14 -1.0
456 5 1.0
457 34 0.7071067811865475
457 33 -0.7071067811865475
457 25 -0.7071067811865475
457 8 0.7071067811865475
458 32 0.7071067811865475
458 29 -0.7071067811865475
458 21 -0.7071067811865475
458 6 0.7071067811865475
459 33 0.7071067811865475
459 31 -0.7071067811865475
459 23 -0.7071067811865475
459 7 0.7071067811865475
460 34 0.7071067811865475
460 33 -0.7071067811865475
460 25 -0.7071067811865475
460 8 0.7071067811865475
461 27 -1.0
461 9 1.0
462 21 -0.8485281374238569
462 12 0.8485281374238569
462 6 -0.8485281374238569
462 5 1.2
462 4 0.8485281374238569
462 3 2.82842712474619
462 0 -1.2
463 29 -0.8485281374238569
463 18 0.8485281374238569
463 9 1.2
463 6 0.8485281374238569
463 4 -0.8485281374238569
463 2 -1.2
464 21 0.8485281374238569
464 12 -0.8485281374238569
464 6 0.8485281374238569
464 5 -1.2
464 4 -0.8485281374238569
464 3 -2.82842712474619
464 0 1.2
465 29 0.8485281374238569
465 18 -0.8485281374238569
465 9 -1.2
465 6 -0.8485281374238569
465 4 0.8485281374238569
465 2 1.2
466 32 -0.8485281374238569
466 27 1.2
466 26 0.8485281374238569
466 21 0.8485281374238569
466 14 -1.2
466 12 -0.8485281374238569
467 35 1.2
467 33 -2.82842712474619
467 32 0.8485281374238569
467 29 0.8485281374238569
467 26 -0.8485281374238569
467 20 -1.2
467 18 -0.8485281374238569
468 32 0.8485281374238569
468 27 -1.2
468 26 -0.8485281374238569
468 21 -0.8485281374238569
468 14 1.2
468 12 0.8485281374238569
469 35 -1.2
469 33 2.82842712474619
469 32 -0.8485281374238569
469 29 -0.8485281374238569
469 26 0.8485281374238569
469 20 1.2
469 18 0.8485281374238569

BCOORD
1
445 1.0
